
--- Job M-R_fobjs.gms Start 05/19/23 13:20:19 41.2.0 5110e5ff WEX-WEI x86 64bit/MS Windows
--- Applying:
    D:\GAMS\41\gmsprmNT.txt
--- GAMS Parameters defined
    Input "G:\Mi unidad\TFG\src\gams\M-R_fobjs.gms"
    PageSize 0
    ScrDir "G:\Mi unidad\TFG\src\gams\225a\"
    SysDir D:\GAMS\41\
    LogOption 3
    ErrMsg 1
    ErrorLog 99
    IDE 1
    LstTitleLeftAligned 1
Licensee: GAMS Demo license for Antonio Sevilla Sastre   G221121|0002CO-GEN
          UCM, Spain                                               DL079880
          C:\Users\Antonio\Documents\GAMS\gamslice.txt
          antsev01@ucm.es, Antonio Sevilla Sastre                          
          Demo license for demonstration and instructional purposes only
Processor information: 1 socket(s), 14 core(s), and 20 thread(s) available
GAMS 41.2.0   Copyright (C) 1987-2022 GAMS Development. All rights reserved
--- Starting compilation
--- M-R_fobjs.gms(223) 3 Mb
--- Starting execution: elapsed 0:00:00.032
--- M-R_fobjs.gms(115) 4 Mb
--- Generating MIP model modelo1
--- M-R_fobjs.gms(221) 5 Mb
---   1,816 rows  1,274 columns  7,320 non-zeroes
---   1,243 discrete-columns
--- Range statistics (absolute non-zero finite values)
--- RHS       [min, max] : [ 1.000E+00, 2.000E+03] - Zero values observed as well
--- Bound     [min, max] : [ 1.000E+00, 1.000E+00] - Zero values observed as well
--- Matrix    [min, max] : [ 2.000E-01, 9.990E+02]
--- Executing CPLEX (Solvelink=2): elapsed 0:00:00.169

IBM ILOG CPLEX   41.2.0 5110e5ff Nov 14, 2022          WEI x86 64bit/MS Window

--- *** This solver runs with a demo license. No commercial use.
--- GMO setup time: 0.00s
--- Space for names approximately 0.08 Mb
--- Use option 'names no' to turn use of names off
--- GMO memory 0.85 Mb (peak 0.86 Mb)
--- Dictionary memory 0.00 Mb
--- Cplex 22.1.0.0 link memory 0.05 Mb (peak 0.23 Mb)
--- Starting Cplex

Version identifier: 22.1.0.0 | 2022-03-09 | 1a383f8ce
CPXPARAM_Advance                                 0
CPXPARAM_Threads                                 1
CPXPARAM_MIP_Display                             4
CPXPARAM_MIP_Pool_Capacity                       0
CPXPARAM_MIP_Tolerances_AbsMIPGap                0
Generic callback                                 0x50
Tried aggregator 2 times.
MIP Presolve eliminated 1505 rows and 664 columns.
MIP Presolve modified 264 coefficients.
Aggregator did 25 substitutions.
Reduced MIP has 285 rows, 585 columns, and 1660 nonzeros.
Reduced MIP has 583 binaries, 2 generals, 0 SOSs, and 0 indicators.
Presolve time = 0.00 sec. (3.25 ticks)
Found incumbent of value 15.000000 after 0.00 sec. (3.66 ticks)
Probing changed sense of 15 constraints.
Probing time = 0.00 sec. (0.61 ticks)
Tried aggregator 2 times.
Detecting symmetries...
MIP Presolve eliminated 35 rows and 20 columns.
MIP Presolve added 5 rows and 5 columns.
MIP Presolve modified 20 coefficients.
Aggregator did 10 substitutions.
Reduced MIP has 245 rows, 560 columns, and 1560 nonzeros.
Reduced MIP has 558 binaries, 2 generals, 0 SOSs, and 0 indicators.
Presolve time = 0.02 sec. (3.46 ticks)
Probing changed sense of 10 constraints.
Probing time = 0.00 sec. (0.53 ticks)
Clique table members: 724.
MIP emphasis: balance optimality and feasibility.
MIP search method: dynamic search.
Parallel mode: none, using 1 thread.
Tried aggregator 1 time.
LP Presolve eliminated 5 rows and 10 columns.
Aggregator did 5 substitutions.
Reduced LP has 235 rows, 545 columns, and 1535 nonzeros.
Presolve time = 0.00 sec. (0.30 ticks)
Initializing dual steep norms . . .

Iteration log . . .
Iteration:     1   Dual objective     =             0.000000
Perturbation started.
Iteration:    51   Dual objective     =            -0.000000
Iteration:   127   Dual objective     =             0.000013
Removing perturbation.
Initializing dual steep norms . . .

Iteration log . . .
Iteration:     1   Dual objective     =             0.000000
Root relaxation solution time = 0.00 sec. (1.33 ticks)

        Nodes                                         Cuts/
   Node  Left     Objective  IInf  Best Integer    Best Bound    ItCnt     Gap

*     0+    0                           15.0000        0.0000           100.00%
Found incumbent of value 15.000000 after 0.02 sec. (10.45 ticks)
      0     0        0.0000    24       15.0000        0.0000      143  100.00%
*     0     0      integral     0        0.0000       Cuts: 8      156    0.00%
Found incumbent of value 0.000000 after 0.02 sec. (13.51 ticks)
      0     0        cutoff              0.0000        0.0000      156    0.00%
Elapsed time = 0.02 sec. (13.51 ticks, tree = 0.01 MB)

Clique cuts applied:  4
Cover cuts applied:  1
Mixed integer rounding cuts applied:  1
Lift and project cuts applied:  1
Gomory fractional cuts applied:  1

Root node processing (before b&c):
  Real time             =    0.02 sec. (13.53 ticks)
Sequential b&c:
  Real time             =    0.00 sec. (0.00 ticks)
                          ------------
Total (root+branch&cut) =    0.02 sec. (13.53 ticks)

--- MIP status (101): integer optimal solution.
--- Cplex Time: 0.02sec (det. 13.54 ticks)

--- Fixing integer variables and solving final LP...

Version identifier: 22.1.0.0 | 2022-03-09 | 1a383f8ce
CPXPARAM_Advance                                 2
CPXPARAM_Threads                                 1
CPXPARAM_MIP_Display                             4
CPXPARAM_MIP_Pool_Capacity                       0
CPXPARAM_MIP_Tolerances_AbsMIPGap                0
Tried aggregator 1 time.
LP Presolve eliminated 1815 rows and 1274 columns.
All rows and columns eliminated.
Presolve time = 0.00 sec. (0.83 ticks)

--- Fixed MIP status (1): optimal.
--- Cplex Time: 0.00sec (det. 1.50 ticks)


Proven optimal solution
MIP Solution:            0.000000    (156 iterations, 0 nodes)
Final Solve:             0.000000    (0 iterations)

Best possible:           0.000000
Absolute gap:            0.000000
Relative gap:            0.000000

--- Reading solution for model modelo1
--- Executing after solve: elapsed 0:00:00.293
--- Generating MIP model modelo1
--- M-R_fobjs.gms(222) 5 Mb
---   1,816 rows  1,274 columns  7,320 non-zeroes
---   1,243 discrete-columns
--- Range statistics (absolute non-zero finite values)
--- RHS       [min, max] : [ 1.000E+00, 2.000E+03] - Zero values observed as well
--- Bound     [min, max] : [ 1.000E+00, 1.000E+00] - Zero values observed as well
--- Matrix    [min, max] : [ 2.000E-01, 9.990E+02]
--- Executing CPLEX (Solvelink=2): elapsed 0:00:00.431

IBM ILOG CPLEX   41.2.0 5110e5ff Nov 14, 2022          WEI x86 64bit/MS Window

--- *** This solver runs with a demo license. No commercial use.
--- GMO setup time: 0.00s
--- Space for names approximately 0.08 Mb
--- Use option 'names no' to turn use of names off
--- GMO memory 0.85 Mb (peak 0.86 Mb)
--- Dictionary memory 0.00 Mb
--- Cplex 22.1.0.0 link memory 0.05 Mb (peak 0.23 Mb)
--- Starting Cplex

Version identifier: 22.1.0.0 | 2022-03-09 | 1a383f8ce
CPXPARAM_Advance                                 0
CPXPARAM_Threads                                 1
CPXPARAM_MIP_Display                             4
CPXPARAM_MIP_Pool_Capacity                       0
CPXPARAM_MIP_Tolerances_AbsMIPGap                0
Generic callback                                 0x50
Tried aggregator 2 times.
MIP Presolve eliminated 1491 rows and 654 columns.
MIP Presolve modified 264 coefficients.
Aggregator did 35 substitutions.
Reduced MIP has 290 rows, 586 columns, and 1670 nonzeros.
Reduced MIP has 583 binaries, 2 generals, 0 SOSs, and 0 indicators.
Presolve time = 0.00 sec. (3.30 ticks)
Found incumbent of value 1.000000 after 0.00 sec. (3.71 ticks)
Probing changed sense of 15 constraints.
Probing time = 0.00 sec. (0.61 ticks)
Tried aggregator 2 times.
Detecting symmetries...
MIP Presolve eliminated 35 rows and 20 columns.
MIP Presolve added 5 rows and 5 columns.
MIP Presolve modified 20 coefficients.
Aggregator did 10 substitutions.
Reduced MIP has 250 rows, 561 columns, and 1570 nonzeros.
Reduced MIP has 558 binaries, 2 generals, 0 SOSs, and 0 indicators.
Presolve time = 0.00 sec. (3.48 ticks)
Probing changed sense of 10 constraints.
Probing time = 0.00 sec. (0.53 ticks)
Clique table members: 724.
MIP emphasis: balance optimality and feasibility.
MIP search method: dynamic search.
Parallel mode: none, using 1 thread.
Tried aggregator 1 time.
LP Presolve eliminated 5 rows and 10 columns.
Aggregator did 5 substitutions.
Reduced LP has 240 rows, 546 columns, and 1545 nonzeros.
Presolve time = 0.00 sec. (0.30 ticks)
Initializing dual steep norms . . .

Iteration log . . .
Iteration:     1   Dual objective     =             0.000000
Perturbation started.
Iteration:    51   Dual objective     =             0.000000
Iteration:   118   Dual objective     =             0.000007
Removing perturbation.
Initializing dual steep norms . . .

Iteration log . . .
Iteration:     1   Dual objective     =             0.000000
Root relaxation solution time = 0.02 sec. (1.40 ticks)

        Nodes                                         Cuts/
   Node  Left     Objective  IInf  Best Integer    Best Bound    ItCnt     Gap

*     0+    0                            1.0000        0.0000           100.00%
Found incumbent of value 1.000000 after 0.02 sec. (10.58 ticks)
      0     0        0.0000    43        1.0000        0.0000      122  100.00%
      0     0        0.0000     5        1.0000       Cuts: 8      130  100.00%
*     0+    0                            0.1250        0.0000           100.00%
Found incumbent of value 0.125000 after 0.02 sec. (16.86 ticks)
      0     0        0.0000    13        0.1250       Cuts: 6      147  100.00%
      0     0        0.0000    10        0.1250       Cuts: 3      165  100.00%
      0     0        0.0000     6        0.1250       Cuts: 2      173  100.00%
      0     0        0.0000    18        0.1250       Cuts: 4      192  100.00%
*     0+    0                            0.0000        0.0000             0.00%
Found incumbent of value 0.000000 after 0.03 sec. (23.54 ticks)
      0     0        cutoff              0.0000        0.0000      192    0.00%
Elapsed time = 0.03 sec. (23.54 ticks, tree = 0.01 MB)

Cover cuts applied:  1
Zero-half cuts applied:  1

Root node processing (before b&c):
  Real time             =    0.03 sec. (23.56 ticks)
Sequential b&c:
  Real time             =    0.00 sec. (0.00 ticks)
                          ------------
Total (root+branch&cut) =    0.03 sec. (23.56 ticks)

--- MIP status (101): integer optimal solution.
--- Cplex Time: 0.03sec (det. 23.56 ticks)

--- Fixing integer variables and solving final LP...

Version identifier: 22.1.0.0 | 2022-03-09 | 1a383f8ce
CPXPARAM_Advance                                 2
CPXPARAM_Threads                                 1
CPXPARAM_MIP_Display                             4
CPXPARAM_MIP_Pool_Capacity                       0
CPXPARAM_MIP_Tolerances_AbsMIPGap                0
Tried aggregator 1 time.
LP Presolve eliminated 1816 rows and 1275 columns.
All rows and columns eliminated.
Presolve time = 0.00 sec. (0.83 ticks)

--- Fixed MIP status (1): optimal.
--- Cplex Time: 0.00sec (det. 1.49 ticks)


Proven optimal solution
MIP Solution:            0.000000    (192 iterations, 0 nodes)
Final Solve:             0.000000    (0 iterations)

Best possible:           0.000000
Absolute gap:            0.000000
Relative gap:            0.000000

--- Reading solution for model modelo1
*** Status: Normal completion
--- Job M-R_fobjs.gms Stop 05/19/23 13:20:19 elapsed 0:00:00.598
